NAME: instance_9
TYPE: TSP
COMMENT: 9-city problem
DIMENSION: 9
EDGE_WEIGHT_TYPE: EUC_2D
NODE_COORD_SECTION
0 618 296
1 64 913
2 931 924
3 558 982
4 329 60
5 481 682
6 179 713
7 240 220
8 114 342
EOF
